
     Program PWSCF v.7.5 starts on 11Aug2026 at 11:52:50 

     This program is part of the open-source Quantum ESPRESSO suite
     for quantum simulation of materials; please cite
         "P. Giannozzi et al., J. Phys.:Condens. Matter 21 395502 (2009);
         "P. Giannozzi et al., J. Phys.:Condens. Matter 29 465901 (2017);
         "P. Giannozzi et al., J. Chem. Phys. 152 154105 (2020);
          URL http://www.quantum-espresso.org", 
     in publications or presentations arising from this work. More details at
     http://www.quantum-espresso.org/quote

     Parallel version (MPI & OpenMP), running on      12 processor cores
     Number of MPI processes:                 1
     Threads/MPI process:                    12

     MPI processes distributed on     1 nodes
     6693 MiB available memory on the printing compute node when the environment starts

     Waiting for input...
     Reading input from standard input

     Current dimensions of program PWSCF are:
     Max number of different atomic species (ntypx) = 10
     Max number of k-points (npk) =  40000
     Max angular momentum in pseudopotentials (lmaxx) =  4
     file Fe.paw.pbe.z_16.ld1.psl.v0.2.1.upf: wavefunction(s)  3D renormalized
     file Te.us.pbe.z_6.ld1.psl.v1.0.0-low.upf: wavefunction(s)  5S renormalized
     Message from routine setup:
     using ibrav=0 with symmetry is DISCOURAGED, use correct ibrav instead

     Subspace diagonalization in iterative solution of the eigenvalue problem:
     a serial algorithm will be used


     G-vector sticks info
     --------------------
     sticks:   dense  smooth     PW     G-vecs:    dense   smooth      PW
     Sum        7317    2399    695               319777    59955    9271

     Using Slab Decomposition



     bravais-lattice index     =            0
     lattice parameter (alat)  =       9.9472  a.u.
     unit-cell volume          =     866.3415 (a.u.)^3
     number of atoms/cell      =            6
     number of atomic types    =            2
     number of electrons       =        56.00 (up:  29.00, down:  27.00)
     number of Kohn-Sham states=           29
     kinetic-energy cutoff     =      64.0000  Ry
     charge density cutoff     =     782.0000  Ry
     scf convergence threshold =      1.0E-08
     mixing beta               =       0.3000
     number of iterations used =            8  plain     mixing
     Exchange-correlation= PBE
                           (   1   4   3   4   0   0   0)

     celldm(1)=   9.947245  celldm(2)=   0.000000  celldm(3)=   0.000000
     celldm(4)=   0.000000  celldm(5)=   0.000000  celldm(6)=   0.000000

     crystal axes: (cart. coord. in units of alat)
               a(1) = (   1.000000   0.000000   0.000000 )  
               a(2) = (   0.000000   1.189430   0.000000 )  
               a(3) = (   0.000000   0.000000   0.740017 )  

     reciprocal axes: (cart. coord. in units 2 pi/alat)
               b(1) = (  1.000000  0.000000  0.000000 )  
               b(2) = (  0.000000  0.840739  0.000000 )  
               b(3) = (  0.000000  0.000000  1.351321 )  


     PseudoPot. # 1 for Fe read from file:
     ./mix-sssp-pbe-eff-lib-v2/library/Fe.paw.pbe.z_16.ld1.psl.v0.2.1.upf
     MD5 check sum: 68a15159d752cb02f0c0b7d318cfa057
     Pseudo is Projector augmented-wave + core cor, Zval = 16.0
     Generated using &quot;atomic&quot; code by A. Dal Corso  v.6.3MaX
     Shape of augmentation charge: PSQ
     Using radial grid of 1191 points,  6 beta functions with: 
                l(1) =   0
                l(2) =   0
                l(3) =   1
                l(4) =   1
                l(5) =   2
                l(6) =   2
     Q(r) pseudized with 0 coefficients 


     PseudoPot. # 2 for Te read from file:
     ./mix-sssp-pbe-eff-lib-v2/library/Te.us.pbe.z_6.ld1.psl.v1.0.0-low.upf
     MD5 check sum: 44eeed7063cd65092dfe4811eda022ea
     Pseudo is Ultrasoft + core correction, Zval =  6.0
     Generated using &quot;atomic&quot; code by A. Dal Corso  v.6.3MaX
     Using radial grid of 1245 points,  6 beta functions with: 
                l(1) =   0
                l(2) =   0
                l(3) =   1
                l(4) =   1
                l(5) =   2
                l(6) =   2
     Q(r) pseudized with 0 coefficients 


     atomic species   valence    mass     pseudopotential
     Fe               16.00    55.84500     Fe( 1.00)
     Te                6.00   127.60000     Te( 1.00)

     Starting magnetic structure 
     atomic species   magnetization
     Fe              0.500
     Te              0.000

      8 Sym. Ops., with inversion, found ( 4 have fractional translation)



   Cartesian axes

     site n.     atom                  positions (alat units)
         1        Fe     tau(   1) = (   0.0000000   0.0000000   0.0000000  )
         2        Fe     tau(   2) = (   0.5000000   0.5947152   0.3700084  )
         3        Te     tau(   3) = (   0.2273530   0.4299581   0.0000000  )
         4        Te     tau(   4) = (   0.7726470   0.7594722   0.0000000  )
         5        Te     tau(   5) = (   0.7273530   0.1647571   0.3700084  )
         6        Te     tau(   6) = (   0.2726470   1.0246733   0.3700084  )

     number of k points=   150

     Number of k-points >= 100: set verbosity='high' to print them.

     Dense  grid:   319777 G-vectors     FFT dimensions: (  90, 108,  72)

     Smooth grid:    59955 G-vectors     FFT dimensions: (  54,  64,  40)

     Estimated max dynamical RAM per process >       2.21 GB

     Check: negative core charge=   -0.000002
     Generating pointlists ...
     new r_m :   0.2006 (alat units)  1.9957 (a.u.) for type    1
     new r_m :   0.2006 (alat units)  1.9957 (a.u.) for type    2

     Initial potential from superposition of free atoms

     starting charge      55.9983, renormalised to      56.0000
     Starting wfcs are   42 randomized atomic wfcs
     Checking if some PAW data can be deallocated... 

     total cpu time spent up to now is      163.6 secs

     per-process dynamical memory:  1236.3 Mb

     Self-consistent Calculation

     iteration #  1     ecut=    64.00 Ry     beta= 0.30
     Davidson diagonalization with overlap
     ethr =  1.00E-02,  avg # of iterations =  2.0

     total cpu time spent up to now is      487.2 secs

     total energy              =    -771.50014245 Ry
     estimated scf accuracy    <       2.94354141 Ry

     total magnetization       =     2.00 Bohr mag/cell
     absolute magnetization    =     7.03 Bohr mag/cell

     iteration #  2     ecut=    64.00 Ry     beta= 0.30
     Davidson diagonalization with overlap
     ethr =  5.26E-03,  avg # of iterations =  4.9

     negative rho (up, down):  0.000E+00 1.580E-05

     total cpu time spent up to now is      981.1 secs

     total energy              =    -771.91078812 Ry
     estimated scf accuracy    <       2.31854108 Ry

     total magnetization       =     2.00 Bohr mag/cell
     absolute magnetization    =     7.65 Bohr mag/cell

     iteration #  3     ecut=    64.00 Ry     beta= 0.30
     Davidson diagonalization with overlap
     ethr =  4.14E-03,  avg # of iterations =  2.3

     negative rho (up, down):  0.000E+00 1.673E-04

     total cpu time spent up to now is     1304.9 secs

     total energy              =    -772.37752751 Ry
     estimated scf accuracy    <       0.72116381 Ry

     total magnetization       =     2.00 Bohr mag/cell
     absolute magnetization    =     7.01 Bohr mag/cell

     iteration #  4     ecut=    64.00 Ry     beta= 0.30
     Davidson diagonalization with overlap
     ethr =  1.29E-03,  avg # of iterations =  6.2

     negative rho (up, down):  0.000E+00 1.501E-04

     total cpu time spent up to now is     1994.2 secs

     total energy              =    -772.76043734 Ry
     estimated scf accuracy    <       7.39613873 Ry

     total magnetization       =     2.00 Bohr mag/cell
     absolute magnetization    =     2.11 Bohr mag/cell

     iteration #  5     ecut=    64.00 Ry     beta= 0.30
     Davidson diagonalization with overlap
     ethr =  1.29E-03,  avg # of iterations =  2.0

     negative rho (up, down):  0.000E+00 1.248E-04

     total cpu time spent up to now is     2471.7 secs

     total energy              =    -772.56020465 Ry
     estimated scf accuracy    <       3.90148526 Ry

     total magnetization       =     2.00 Bohr mag/cell
     absolute magnetization    =     2.56 Bohr mag/cell

     iteration #  6     ecut=    64.00 Ry     beta= 0.30
     Davidson diagonalization with overlap
     ethr =  1.29E-03,  avg # of iterations =  3.1

     negative rho (up, down):  0.000E+00 1.010E-04

     total cpu time spent up to now is     2987.4 secs

     total energy              =    -772.47378283 Ry
     estimated scf accuracy    <       1.73162464 Ry

     total magnetization       =     2.00 Bohr mag/cell
     absolute magnetization    =     3.36 Bohr mag/cell

     iteration #  7     ecut=    64.00 Ry     beta= 0.30
     Davidson diagonalization with overlap
     ethr =  1.29E-03,  avg # of iterations =  4.6

     negative rho (up, down):  0.000E+00 6.343E-05

     total cpu time spent up to now is     3675.4 secs

     total energy              =    -772.50941072 Ry
     estimated scf accuracy    <       0.31116858 Ry

     total magnetization       =     2.00 Bohr mag/cell
     absolute magnetization    =     3.80 Bohr mag/cell

     iteration #  8     ecut=    64.00 Ry     beta= 0.30
     Davidson diagonalization with overlap
     ethr =  5.56E-04,  avg # of iterations =  5.8

     negative rho (up, down):  0.000E+00 6.847E-05

     total cpu time spent up to now is     4433.4 secs

     total energy              =    -772.62786312 Ry
     estimated scf accuracy    <       0.17817225 Ry

     total magnetization       =     2.00 Bohr mag/cell
     absolute magnetization    =     3.73 Bohr mag/cell

     iteration #  9     ecut=    64.00 Ry     beta= 0.30
     Davidson diagonalization with overlap
     ethr =  3.18E-04,  avg # of iterations =  1.4

     negative rho (up, down):  0.000E+00 4.693E-05

     total cpu time spent up to now is     4754.4 secs

     total energy              =    -772.63109989 Ry
     estimated scf accuracy    <       0.23595563 Ry

     total magnetization       =     2.00 Bohr mag/cell
     absolute magnetization    =     3.79 Bohr mag/cell

     iteration # 10     ecut=    64.00 Ry     beta= 0.30
     Davidson diagonalization with overlap
     ethr =  3.18E-04,  avg # of iterations =  1.1

     negative rho (up, down):  0.000E+00 2.111E-06

     total cpu time spent up to now is     5064.8 secs

     total energy              =    -772.55963138 Ry
     estimated scf accuracy    <       0.24060352 Ry

     total magnetization       =     2.00 Bohr mag/cell
     absolute magnetization    =     3.66 Bohr mag/cell

     iteration # 11     ecut=    64.00 Ry     beta= 0.30
     Davidson diagonalization with overlap
     ethr =  3.18E-04,  avg # of iterations =  4.2

     total cpu time spent up to now is     5694.2 secs

     total energy              =    -772.62157164 Ry
     estimated scf accuracy    <       0.13506898 Ry

     total magnetization       =     2.00 Bohr mag/cell
     absolute magnetization    =     2.36 Bohr mag/cell

     iteration # 12     ecut=    64.00 Ry     beta= 0.30
     Davidson diagonalization with overlap
     ethr =  2.41E-04,  avg # of iterations =  1.0

     total cpu time spent up to now is     9938.6 secs

     total energy              =    -772.63491598 Ry
     estimated scf accuracy    <       0.07327698 Ry

     total magnetization       =     2.00 Bohr mag/cell
     absolute magnetization    =     2.49 Bohr mag/cell

     iteration # 13     ecut=    64.00 Ry     beta= 0.30
     Davidson diagonalization with overlap
     ethr =  1.31E-04,  avg # of iterations =  1.9

     negative rho (up, down):  0.000E+00 3.089E-06

     total cpu time spent up to now is    10544.8 secs

     total energy              =    -772.59860276 Ry
     estimated scf accuracy    <       0.17679656 Ry

     total magnetization       =     2.00 Bohr mag/cell
     absolute magnetization    =     2.29 Bohr mag/cell

     iteration # 14     ecut=    64.00 Ry     beta= 0.30
     Davidson diagonalization with overlap
     ethr =  1.31E-04,  avg # of iterations =  4.2

     total cpu time spent up to now is    11107.2 secs

     total energy              =    -772.61774055 Ry
     estimated scf accuracy    <       0.00067697 Ry

     total magnetization       =     2.00 Bohr mag/cell
     absolute magnetization    =     2.83 Bohr mag/cell

     iteration # 15     ecut=    64.00 Ry     beta= 0.30
     Davidson diagonalization with overlap
     c_bands:  1 eigenvalues not converged
     c_bands:  1 eigenvalues not converged
     c_bands:  1 eigenvalues not converged
     c_bands:  1 eigenvalues not converged
     c_bands:  1 eigenvalues not converged
     c_bands:  1 eigenvalues not converged
     c_bands:  1 eigenvalues not converged
     c_bands:  1 eigenvalues not converged
     c_bands:  1 eigenvalues not converged
     c_bands:  1 eigenvalues not converged
     c_bands:  1 eigenvalues not converged
     c_bands:  1 eigenvalues not converged
     c_bands:  1 eigenvalues not converged
     c_bands:  1 eigenvalues not converged
     c_bands:  1 eigenvalues not converged
     c_bands:  1 eigenvalues not converged
     c_bands:  1 eigenvalues not converged
     c_bands:  1 eigenvalues not converged
     c_bands:  1 eigenvalues not converged
     ethr =  1.21E-06,  avg # of iterations = 10.4

     total cpu time spent up to now is    12021.3 secs

     total energy              =    -772.62155805 Ry
     estimated scf accuracy    <       0.00454463 Ry

     total magnetization       =     2.00 Bohr mag/cell
     absolute magnetization    =     2.43 Bohr mag/cell

     iteration # 16     ecut=    64.00 Ry     beta= 0.30
     Davidson diagonalization with overlap
     c_bands:  1 eigenvalues not converged
     c_bands:  1 eigenvalues not converged
     ethr =  1.21E-06,  avg # of iterations =  3.7

     total cpu time spent up to now is    12482.7 secs

     total energy              =    -772.62149697 Ry
     estimated scf accuracy    <       0.01186704 Ry

     total magnetization       =     2.00 Bohr mag/cell
     absolute magnetization    =     2.33 Bohr mag/cell

     iteration # 17     ecut=    64.00 Ry     beta= 0.30
     Davidson diagonalization with overlap
     ethr =  1.21E-06,  avg # of iterations =  1.2

     total cpu time spent up to now is    12768.7 secs

     total energy              =    -772.62051624 Ry
     estimated scf accuracy    <       0.00977050 Ry

     total magnetization       =     2.00 Bohr mag/cell
     absolute magnetization    =     2.35 Bohr mag/cell

     iteration # 18     ecut=    64.00 Ry     beta= 0.30
     Davidson diagonalization with overlap
     c_bands:  1 eigenvalues not converged
     c_bands:  1 eigenvalues not converged
     ethr =  1.21E-06,  avg # of iterations =  5.8

     total cpu time spent up to now is    13387.7 secs

     total energy              =    -772.62086563 Ry
     estimated scf accuracy    <       0.00089566 Ry

     total magnetization       =     2.00 Bohr mag/cell
     absolute magnetization    =     2.34 Bohr mag/cell

     iteration # 19     ecut=    64.00 Ry     beta= 0.30
     Davidson diagonalization with overlap
     ethr =  1.21E-06,  avg # of iterations =  3.9

     total cpu time spent up to now is    13874.5 secs

     total energy              =    -772.62098806 Ry
     estimated scf accuracy    <       0.00004097 Ry

     total magnetization       =     2.00 Bohr mag/cell
     absolute magnetization    =     2.31 Bohr mag/cell

     iteration # 20     ecut=    64.00 Ry     beta= 0.30
     Davidson diagonalization with overlap
     c_bands:  1 eigenvalues not converged
     c_bands:  1 eigenvalues not converged
     c_bands:  1 eigenvalues not converged
     c_bands:  1 eigenvalues not converged
     c_bands:  1 eigenvalues not converged
     c_bands:  1 eigenvalues not converged
     ethr =  7.32E-08,  avg # of iterations =  9.7

     total cpu time spent up to now is    14815.2 secs

     total energy              =    -772.62097447 Ry
     estimated scf accuracy    <       0.00081394 Ry

     total magnetization       =     2.00 Bohr mag/cell
     absolute magnetization    =     2.31 Bohr mag/cell

     iteration # 21     ecut=    64.00 Ry     beta= 0.30
     Davidson diagonalization with overlap
     c_bands:  1 eigenvalues not converged
     ethr =  7.32E-08,  avg # of iterations =  7.1

     total cpu time spent up to now is    15493.0 secs

     total energy              =    -772.62099480 Ry
     estimated scf accuracy    <       0.00002276 Ry

     total magnetization       =     2.00 Bohr mag/cell
     absolute magnetization    =     2.30 Bohr mag/cell

     iteration # 22     ecut=    64.00 Ry     beta= 0.30
     Davidson diagonalization with overlap
     ethr =  4.06E-08,  avg # of iterations =  6.9

     total cpu time spent up to now is    16189.1 secs

     total energy              =    -772.62104684 Ry
     estimated scf accuracy    <       0.00000367 Ry

     total magnetization       =     2.00 Bohr mag/cell
     absolute magnetization    =     2.30 Bohr mag/cell

     iteration # 23     ecut=    64.00 Ry     beta= 0.30
     Davidson diagonalization with overlap
     ethr =  6.55E-09,  avg # of iterations =  6.5

     total cpu time spent up to now is    16818.9 secs

     total energy              =    -772.62104788 Ry
     estimated scf accuracy    <       0.00004037 Ry

     total magnetization       =     2.00 Bohr mag/cell
     absolute magnetization    =     2.29 Bohr mag/cell

     iteration # 24     ecut=    64.00 Ry     beta= 0.30
     Davidson diagonalization with overlap
     ethr =  6.55E-09,  avg # of iterations =  7.2

     total cpu time spent up to now is    17553.2 secs

     total energy              =    -772.62105394 Ry
     estimated scf accuracy    <       0.00000924 Ry

     total magnetization       =     2.00 Bohr mag/cell
     absolute magnetization    =     2.30 Bohr mag/cell

     iteration # 25     ecut=    64.00 Ry     beta= 0.30
     Davidson diagonalization with overlap
     ethr =  6.55E-09,  avg # of iterations =  5.0

     total cpu time spent up to now is    18096.7 secs

     total energy              =    -772.62106046 Ry
     estimated scf accuracy    <       0.00000074 Ry

     total magnetization       =     2.00 Bohr mag/cell
     absolute magnetization    =     2.30 Bohr mag/cell

     iteration # 26     ecut=    64.00 Ry     beta= 0.30
     Davidson diagonalization with overlap
     ethr =  1.32E-09,  avg # of iterations =  7.4

     total cpu time spent up to now is    18810.5 secs

     total energy              =    -772.62106273 Ry
     estimated scf accuracy    <       0.00000356 Ry

     total magnetization       =     2.00 Bohr mag/cell
     absolute magnetization    =     2.30 Bohr mag/cell

     iteration # 27     ecut=    64.00 Ry     beta= 0.30
     Davidson diagonalization with overlap
     ethr =  1.32E-09,  avg # of iterations =  3.6

     total cpu time spent up to now is    19289.3 secs

     total energy              =    -772.62106352 Ry
     estimated scf accuracy    <       0.00000070 Ry

     total magnetization       =     2.00 Bohr mag/cell
     absolute magnetization    =     2.30 Bohr mag/cell

     iteration # 28     ecut=    64.00 Ry     beta= 0.30
     Davidson diagonalization with overlap
     ethr =  1.25E-09,  avg # of iterations =  1.6

     total cpu time spent up to now is    19619.4 secs

     total energy              =    -772.62106408 Ry
     estimated scf accuracy    <       0.00000056 Ry

     total magnetization       =     2.00 Bohr mag/cell
     absolute magnetization    =     2.30 Bohr mag/cell

     iteration # 29     ecut=    64.00 Ry     beta= 0.30
     Davidson diagonalization with overlap
     ethr =  9.97E-10,  avg # of iterations =  3.9

     total cpu time spent up to now is    20099.6 secs

     total energy              =    -772.62106453 Ry
     estimated scf accuracy    <       0.00000001 Ry

     total magnetization       =     2.00 Bohr mag/cell
     absolute magnetization    =     2.30 Bohr mag/cell

     iteration # 30     ecut=    64.00 Ry     beta= 0.30
     Davidson diagonalization with overlap
     c_bands:  1 eigenvalues not converged
     c_bands:  1 eigenvalues not converged
     c_bands:  1 eigenvalues not converged
     c_bands:  1 eigenvalues not converged
     c_bands:  1 eigenvalues not converged
     c_bands:  1 eigenvalues not converged
     c_bands:  1 eigenvalues not converged
     c_bands:  1 eigenvalues not converged
     c_bands:  1 eigenvalues not converged
     c_bands:  1 eigenvalues not converged
     c_bands:  1 eigenvalues not converged
     c_bands:  1 eigenvalues not converged
     ethr =  2.36E-11,  avg # of iterations =  8.8

     total cpu time spent up to now is    20982.6 secs

     total energy              =    -772.62106466 Ry
     estimated scf accuracy    <       0.00000005 Ry

     total magnetization       =     2.00 Bohr mag/cell
     absolute magnetization    =     2.30 Bohr mag/cell

     iteration # 31     ecut=    64.00 Ry     beta= 0.30
     Davidson diagonalization with overlap
     c_bands:  1 eigenvalues not converged
     c_bands:  1 eigenvalues not converged
     ethr =  2.36E-11,  avg # of iterations =  7.0

     total cpu time spent up to now is    21727.7 secs

     total energy              =    -772.62106475 Ry
     estimated scf accuracy    <       0.00000002 Ry

     total magnetization       =     2.00 Bohr mag/cell
     absolute magnetization    =     2.30 Bohr mag/cell

     iteration # 32     ecut=    64.00 Ry     beta= 0.30
     Davidson diagonalization with overlap
     ethr =  2.36E-11,  avg # of iterations =  2.3

     total cpu time spent up to now is    22117.6 secs

     total energy              =    -772.62106480 Ry
     estimated scf accuracy    <       0.00000001 Ry

     total magnetization       =     2.00 Bohr mag/cell
     absolute magnetization    =     2.30 Bohr mag/cell

     iteration # 33     ecut=    64.00 Ry     beta= 0.30
     Davidson diagonalization with overlap
     ethr =  2.00E-11,  avg # of iterations =  2.5

     Magnetic moment per site  (integrated on atomic sphere of radius R)
     atom   1 (R=0.201)  charge= 14.7025  magn=  1.0325
     atom   2 (R=0.201)  charge= 14.7025  magn=  1.0325
     atom   3 (R=0.201)  charge=  2.7560  magn= -0.0085
     atom   4 (R=0.201)  charge=  2.7560  magn= -0.0085
     atom   5 (R=0.201)  charge=  2.7560  magn= -0.0085
     atom   6 (R=0.201)  charge=  2.7560  magn= -0.0085

     total cpu time spent up to now is    22502.2 secs

     End of self-consistent calculation

     Number of k-points >= 100: set verbosity='high' to print the bands.

     highest occupied, lowest unoccupied level (ev):    11.7045    9.9534

!    total energy              =    -772.62106484 Ry
     estimated scf accuracy    <          3.2E-09 Ry

     The total energy is the sum of the following terms:
     one-electron contribution =    -402.08815867 Ry
     hartree contribution      =     228.58991620 Ry
     xc contribution           =    -136.26302719 Ry
     ewald contribution        =    -310.57151021 Ry
     one-center paw contrib.   =    -152.28828497 Ry

     total magnetization       =     2.00 Bohr mag/cell
     absolute magnetization    =     2.30 Bohr mag/cell

     convergence has been achieved in  33 iterations

     Writing all to output data dir ./out/FeTe2_FM.save/ :
     XML data file, charge density, pseudopotentials, collected wavefunctions

     init_run     :   1901.71s CPU    163.45s WALL (       1 calls)
     electrons    : 218364.27s CPU  22338.62s WALL (       1 calls)

     Called by init_run:
     wfcinit      :   1817.54s CPU    153.13s WALL (       1 calls)
     potinit      :     29.25s CPU      2.96s WALL (       1 calls)
     hinit0       :     12.64s CPU      1.92s WALL (       1 calls)

     Called by electrons:
     c_bands      : 190195.74s CPU  19814.78s WALL (      33 calls)
     sum_band     :  27449.09s CPU   2398.61s WALL (      33 calls)
     v_of_rho     :    139.31s CPU     13.07s WALL (      34 calls)
     newd         :    393.37s CPU     90.90s WALL (      34 calls)
     PAW_pot      :    194.26s CPU     22.66s WALL (      34 calls)
     mix_rho      :     27.08s CPU      3.12s WALL (      33 calls)

     Called by c_bands:
     init_us_2    :   1409.56s CPU    119.92s WALL (   20100 calls)
     cegterg      : 186701.47s CPU  19516.34s WALL (    9900 calls)

     Called by *egterg:
     cdiaghg      :   3080.01s CPU    262.48s WALL (   54683 calls)
     h_psi        : 146344.44s CPU  16212.38s WALL (   54983 calls)
     s_psi        :   5248.44s CPU    468.45s WALL (   54983 calls)
     g_psi        :    318.27s CPU     52.54s WALL (   44783 calls)

     Called by h_psi:
     h_psi:calbec :  18536.45s CPU   5362.90s WALL (   54983 calls)
     vloc_psi     : 120326.57s CPU  10225.18s WALL (   54983 calls)
                                        0.00s GPU  (   54983 calls)
     add_vuspsi   :   1574.81s CPU    146.82s WALL (   54983 calls)

     General routines
     calbec       :  22480.75s CPU   5698.83s WALL (   64883 calls)
     fft          :     87.18s CPU      8.47s WALL (     844 calls)
     ffts         :     31.78s CPU      2.79s WALL (     134 calls)
     fftw         : 131519.00s CPU  11190.22s WALL ( 1972248 calls)
     interpolate  :     29.60s CPU      2.79s WALL (      68 calls)

     Parallel routines

     PWSCF        :   2d13h11m CPU      6h15m WALL


   This run was terminated on:  18: 7:54  11Aug2026            

=------------------------------------------------------------------------------=
   JOB DONE.
=------------------------------------------------------------------------------=
