
     Program PWSCF v.7.5 starts on  9Aug2026 at  2: 2:50 

     This program is part of the open-source Quantum ESPRESSO suite
     for quantum simulation of materials; please cite
         "P. Giannozzi et al., J. Phys.:Condens. Matter 21 395502 (2009);
         "P. Giannozzi et al., J. Phys.:Condens. Matter 29 465901 (2017);
         "P. Giannozzi et al., J. Chem. Phys. 152 154105 (2020);
          URL http://www.quantum-espresso.org", 
     in publications or presentations arising from this work. More details at
     http://www.quantum-espresso.org/quote

     Parallel version (MPI & OpenMP), running on      12 processor cores
     Number of MPI processes:                 1
     Threads/MPI process:                    12

     MPI processes distributed on     1 nodes
     5838 MiB available memory on the printing compute node when the environment starts

     Waiting for input...
     Reading input from standard input

     Current dimensions of program PWSCF are:
     Max number of different atomic species (ntypx) = 10
     Max number of k-points (npk) =  40000
     Max angular momentum in pseudopotentials (lmaxx) =  4
     file Fe.paw.pbe.z_16.ld1.psl.v0.2.1.upf: wavefunction(s)  3D renormalized
     file Te.us.pbe.z_6.ld1.psl.v1.0.0-low.upf: wavefunction(s)  5S renormalized

     Atomic positions and unit cell read from directory:
     ./out/FeTe2_r.save/

     Message from routine setup:
     using ibrav=0 with symmetry is DISCOURAGED, use correct ibrav instead

     Subspace diagonalization in iterative solution of the eigenvalue problem:
     a serial algorithm will be used


     G-vector sticks info
     --------------------
     sticks:   dense  smooth     PW     G-vecs:    dense   smooth      PW
     Sum        7317    2399    661               319777    59955    8759

     Using Slab Decomposition



     bravais-lattice index     =            0
     lattice parameter (alat)  =       9.9472  a.u.
     unit-cell volume          =     866.3415 (a.u.)^3
     number of atoms/cell      =            6
     number of atomic types    =            2
     number of electrons       =        56.00
     number of Kohn-Sham states=           40
     kinetic-energy cutoff     =      64.0000  Ry
     charge density cutoff     =     782.0000  Ry
     Exchange-correlation= PBE
                           (   1   4   3   4   0   0   0)

     celldm(1)=   9.947245  celldm(2)=   0.000000  celldm(3)=   0.000000
     celldm(4)=   0.000000  celldm(5)=   0.000000  celldm(6)=   0.000000

     crystal axes: (cart. coord. in units of alat)
               a(1) = (   1.000000   0.000000   0.000000 )  
               a(2) = (   0.000000   1.189430   0.000000 )  
               a(3) = (   0.000000   0.000000   0.740017 )  

     reciprocal axes: (cart. coord. in units 2 pi/alat)
               b(1) = (  1.000000  0.000000  0.000000 )  
               b(2) = (  0.000000  0.840739  0.000000 )  
               b(3) = (  0.000000  0.000000  1.351321 )  


     PseudoPot. # 1 for Fe read from file:
     ./mix-sssp-pbe-eff-lib-v2/library/Fe.paw.pbe.z_16.ld1.psl.v0.2.1.upf
     MD5 check sum: 68a15159d752cb02f0c0b7d318cfa057
     Pseudo is Projector augmented-wave + core cor, Zval = 16.0
     Generated using &quot;atomic&quot; code by A. Dal Corso  v.6.3MaX
     Shape of augmentation charge: PSQ
     Using radial grid of 1191 points,  6 beta functions with: 
                l(1) =   0
                l(2) =   0
                l(3) =   1
                l(4) =   1
                l(5) =   2
                l(6) =   2
     Q(r) pseudized with 0 coefficients 


     PseudoPot. # 2 for Te read from file:
     ./mix-sssp-pbe-eff-lib-v2/library/Te.us.pbe.z_6.ld1.psl.v1.0.0-low.upf
     MD5 check sum: 44eeed7063cd65092dfe4811eda022ea
     Pseudo is Ultrasoft + core correction, Zval =  6.0
     Generated using &quot;atomic&quot; code by A. Dal Corso  v.6.3MaX
     Using radial grid of 1245 points,  6 beta functions with: 
                l(1) =   0
                l(2) =   0
                l(3) =   1
                l(4) =   1
                l(5) =   2
                l(6) =   2
     Q(r) pseudized with 0 coefficients 


     atomic species   valence    mass     pseudopotential
     Fe               16.00    55.84500     Fe( 1.00)
     Te                6.00   127.60000     Te( 1.00)

      8 Sym. Ops., with inversion, found ( 4 have fractional translation)



   Cartesian axes

     site n.     atom                  positions (alat units)
         1        Fe     tau(   1) = (   0.0000000   0.0000000   0.0000000  )
         2        Fe     tau(   2) = (   0.5000000   0.5947152   0.3700084  )
         3        Te     tau(   3) = (   0.2273530   0.4299581   0.0000000  )
         4        Te     tau(   4) = (   0.7726470   0.7594722   0.0000000  )
         5        Te     tau(   5) = (   0.7273530   0.1647571   0.3700084  )
         6        Te     tau(   6) = (   0.2726470   1.0246733   0.3700084  )

     number of k points=   151

     Number of k-points >= 100: set verbosity='high' to print them.

     Dense  grid:   319777 G-vectors     FFT dimensions: (  90, 108,  72)

     Smooth grid:    59955 G-vectors     FFT dimensions: (  54,  64,  40)

     Estimated max dynamical RAM per process >       1.02 GB

     Check: negative core charge=   -0.000002

     The potential is recalculated from file :
     ./out/FeTe2_r.save/charge-density

     Starting wfcs are   42 randomized atomic wfcs
     Checking if some PAW data can be deallocated... 

     Band Structure Calculation
     Davidson diagonalization with overlap
     c_bands:  1 eigenvalues not converged
     c_bands:  1 eigenvalues not converged
     c_bands:  1 eigenvalues not converged
     c_bands:  1 eigenvalues not converged
     c_bands:  1 eigenvalues not converged

     ethr =  1.79E-11,  avg # of iterations = 72.1

     total cpu time spent up to now is     3431.9 secs

     End of band structure calculation

     Number of k-points >= 100: set verbosity='high' to print the bands.

     Writing all to output data dir ./out/FeTe2_r.save/ :
     XML data file, pseudopotentials, collected wavefunctions

     init_run     :     25.00s CPU      4.93s WALL (       1 calls)
     electrons    :  40732.75s CPU   3426.84s WALL (       1 calls)

     Called by init_run:
     wfcinit      :      0.00s CPU      0.00s WALL (       1 calls)
     potinit      :      8.70s CPU      1.00s WALL (       1 calls)
     hinit0       :     11.25s CPU      1.80s WALL (       1 calls)

     Called by electrons:
     c_bands      :  40732.70s CPU   3426.84s WALL (       1 calls)
     v_of_rho     :      2.43s CPU      0.25s WALL (       1 calls)
     newd         :      4.93s CPU      1.97s WALL (       1 calls)
     PAW_pot      :      2.57s CPU      0.26s WALL (       1 calls)

     Called by c_bands:
     init_us_2    :      9.57s CPU      0.81s WALL (     151 calls)
     cegterg      :  40048.77s CPU   3369.21s WALL (     616 calls)

     Called by *egterg:
     cdiaghg      :    873.02s CPU     80.26s WALL (   11045 calls)
     h_psi        :  31235.38s CPU   2647.53s WALL (   11661 calls)
     s_psi        :   1155.81s CPU    103.69s WALL (   11661 calls)
     g_psi        :    145.42s CPU     20.91s WALL (   10894 calls)

     Called by h_psi:
     h_psi:calbec :   3187.13s CPU    265.62s WALL (   11661 calls)
     vloc_psi     :  26336.51s CPU   2236.56s WALL (   11661 calls)
                                        0.00s GPU  (   11661 calls)
     add_vuspsi   :    394.51s CPU     36.03s WALL (   11661 calls)

     General routines
     calbec       :   3184.25s CPU    265.58s WALL (   11661 calls)
     fft          :     10.81s CPU      1.25s WALL (      13 calls)
     ffts         :      3.36s CPU      0.46s WALL (       1 calls)
     fftw         :  24108.00s CPU   2051.01s WALL (  553758 calls)
     interpolate  :      3.56s CPU      0.47s WALL (       1 calls)
     davcio       :      8.07s CPU      0.79s WALL (     302 calls)

     Parallel routines

     PWSCF        :     11h19m CPU  57m13.00s WALL


   This run was terminated on:   3: 0: 3   9Aug2026            

=------------------------------------------------------------------------------=
   JOB DONE.
=------------------------------------------------------------------------------=
